100
32
23
20
32
15
4
7
26
28
26
7
17
2
25
3
2
2
2
1
2
1
1
5
2
1
2
1
2
19
2
1
1
19
2
4
1
2
1
1
5
19
1
1
1
1
1
2
1
2
1
1
1
2
2
2
17
1
1
3
1
1
1
3
2
4
3
18
1
1
18
16
2
1
3
2
2
1
3
2
1
1
3
1
3
2
1
1
4
1
1
1
1
1
1
19
1
2
1
1
1
2